8046
7045
9783
515
9203
2447
4133
5327
6073
9914
10178
3203
9327
8275
8540
8821
8247
10006
1672
8713
1791
4327
7769
8362
2959
8578
5544
4237
5978
7002
2482
604
3997
2162
2581
908
6518
5241
1996
5439
1007
2318
8905
3508
6092
2397
3876
8382
6350
6629
7193
